Route #1: 44 10 5 8 27 29 37
Route #2: 6 25 41
Route #3: 36 1 18 30 20 42 40
Route #4: 3 31 24 28 11 21 39 14 45 4
Route #5: 48 38 34 32 19 15 49 17 50 12 23
Route #6: 2 16 9 13 46 26 22
Route #7: 47 51 7 43 33 35
Cost 747
Time 0.072183
